\* Opportunity_Problem *\
Maximize
OBJ: affordability - competition - crime + demographics + foot_traffic
 + growth_potential + opportunity + population_density
Subject To
Bounds
 -1.56670073924 <= affordability <= 4
 -0.980441954521 <= competition <= 4
 -1.37023017469 <= crime <= 4
 -4 <= demographics <= 1.3913074319
 -0.471764129405 <= foot_traffic <= 4
 -4 <= growth_potential <= 0.934502483384
 -4 <= opportunity <= 2.23038797168
 -1.06603740858 <= population_density <= 4
End
